Gurobi Optimizer version 9.1.2 build v9.1.2rc0 (linux64)
Thread count: 36 physical cores, 72 logical processors, using up to 32 threads
Optimize a model with 12 rows, 57 columns and 590 nonzeros
Model fingerprint: 0xf32eec78
Model has 47 quadratic constraints
Coefficient statistics:
  Matrix range     [2e-05, 3e+00]
  QMatrix range    [1e+00, 1e+00]
  QLMatrix range   [1e+00, 1e+00]
  Objective range  [8e-03, 7e-01]
  Bounds range     [1e+00, 1e+00]
  RHS range        [1e+00, 1e+00]
Presolve removed 9 rows and 0 columns

Continuous model is non-convex -- solving as a MIP.

Presolve removed 9 rows and 0 columns
Presolve time: 0.00s
Presolved: 189 rows, 57 columns, 443 nonzeros
Presolved model has 47 bilinear constraint(s)
Variable types: 57 continuous, 0 integer (0 binary)

Root relaxation: objective -1.743721e+00, 44 iterations, 0.00 seconds

    Nodes    |    Current Node    |     Objective Bounds      |     Work
 Expl Unexpl |  Obj  Depth IntInf | Incumbent    BestBd   Gap | It/Node Time

     0     0   -1.74372    0   38          -   -1.74372      -     -    0s
H    0     0                       0.6147548   -1.74372   384%     -    0s
     0     0   -1.64739    0    1    0.61475   -1.64739   368%     -    0s
H    0     0                      -1.6450460   -1.64739  0.14%     -    0s
     0     0     cutoff    0        -1.64505   -1.64505  0.00%     -    0s

Cutting planes:
  RLT: 25
  BQP: 3

Explored 1 nodes (76 simplex iterations) in 0.01 seconds
Thread count was 32 (of 72 available processors)

Solution count 2: -1.64505 0.614755 
No other solutions better than -1.64505

Optimal solution found (tolerance 1.00e-04)
Best objective -1.645045978473e+00, best bound -1.645045978473e+00, gap 0.0000%

User-callback calls 78, time in user-callback 0.00 sec
Gurobi Optimizer version 9.1.2 build v9.1.2rc0 (linux64)
Thread count: 36 physical cores, 72 logical processors, using up to 32 threads
Optimize a model with 360 rows, 572 columns and 2212 nonzeros
Model fingerprint: 0xa28c39c1
Model has 261 quadratic constraints
Coefficient statistics:
  Matrix range     [4e-04, 8e+00]
  QMatrix range    [1e+00, 1e+00]
  QLMatrix range   [1e+00, 1e+00]
  Objective range  [4e-02, 8e+00]
  Bounds range     [1e+00, 8e+00]
  RHS range        [1e+00, 8e+00]
Presolve removed 5 rows and 0 columns

Continuous model is non-convex -- solving as a MIP.

Presolve removed 48 rows and 41 columns
Presolve time: 0.00s
Presolved: 1356 rows, 531 columns, 4083 nonzeros
Presolved model has 261 bilinear constraint(s)
Variable types: 531 continuous, 0 integer (0 binary)

Root relaxation: objective -6.460409e+02, 277 iterations, 0.00 seconds

    Nodes    |    Current Node    |     Objective Bounds      |     Work
 Expl Unexpl |  Obj  Depth IntInf | Incumbent    BestBd   Gap | It/Node Time

     0     0 -646.04087    0   36          - -646.04087      -     -    0s
     0     0 -645.88880    0   36          - -645.88880      -     -    0s
H    0     0                    -582.7764186 -645.88880  10.8%     -    0s
H    0     0                    -584.2360636 -645.88880  10.6%     -    0s
H    0     0                    -595.0041330 -645.88880  8.55%     -    0s
H    0     0                    -595.0095905 -645.88880  8.55%     -    0s
     0     2 -645.88880    0   36 -595.00959 -645.88880  8.55%     -    0s
* 1954  2222              65    -596.6475821 -631.68509  5.87%   2.9    0s
* 1955  2220              65    -596.8427912 -631.68509  5.84%   2.9    0s
* 2008  2118              43    -618.1195526 -631.68509  2.19%   2.9    0s
H 2295  2039                    -621.9746332 -630.47993  1.37%   2.7    0s
H 2463  2039                    -625.6024880 -630.47993  0.78%   2.7    0s
H 3907  1234                    -625.8103576 -628.69727  0.46%   2.9    0s
H 5249  1414                    -626.1544307 -628.69727  0.41%   3.2    0s
* 7740  1895              88    -626.1810700 -628.69727  0.40%   3.2    1s
* 7742  1895              87    -626.1810747 -628.69727  0.40%   3.2    1s
* 7744  1895              87    -626.1810790 -628.69727  0.40%   3.2    1s
H 8791  2906                    -626.2253676 -628.69727  0.39%   3.0    1s
* 9168  2610             107    -626.3724718 -628.69727  0.37%   3.0    1s
* 9171  2610             106    -626.3724753 -628.69727  0.37%   3.0    1s
H 9216  2590                    -626.3737190 -628.69727  0.37%   3.0    1s
* 9459  2434              89    -626.5376692 -628.69727  0.34%   3.0    1s
*10273  2315             103    -626.5436378 -628.69727  0.34%   2.9    1s
*10274  2304             103    -626.5448329 -628.69727  0.34%   2.9    1s
*10439  1975             103    -626.6216151 -628.69727  0.33%   2.9    1s
*10440  1975             103    -626.6216157 -628.69727  0.33%   2.9    1s
 52390  2892     cutoff   52      -626.62162 -626.77738  0.02%   2.6    5s
*56309  2452              88    -626.6216698 -626.75206  0.02%   2.6    5s
*62710  1109              90    -626.6320359 -626.70828  0.01%   2.7    5s

Explored 66023 nodes (178987 simplex iterations) in 5.66 seconds
Thread count was 32 (of 72 available processors)

Solution count 10: -626.632 -626.622 -626.622 ... -626.372

Optimal solution found (tolerance 1.00e-04)
Best objective -6.266320359452e+02, best bound -6.266829298333e+02, gap 0.0081%

User-callback calls 132716, time in user-callback 0.03 sec



objective value: -626.6320359451636
objective bound: -626.6829298333189
w_opt: 1-dimensional DenseAxisArray{Float64,1,...} with index sets:
    Dimension 1, [(25, 1, 2), (25, 1, 1), (25, 1, 14), (20, 1, 2), (20, 1, 1), (20, 1, 14), (1, 1, 2), (1, 1, 1), (1, 1, 14), (2, 1, 2)  …  (20, 15, 23), (20, 15, 3), (8, 15, 30), (8, 15, 29), (8, 15, 23), (8, 15, 3), (2, 15, 30), (2, 15, 29), (2, 15, 23), (2, 15, 3)]
And data, a 261-element Vector{Float64}:
 1.5540531652078349
 0.0
 0.0
 0.4435884034469506
 0.0
 0.0
 0.0
 0.0
 0.0
 0.0
 0.0
 0.0
 0.0
 0.0
 0.0
 0.0
 2.0
 0.0
 0.0
 1.0
 0.0
 0.0
 0.0
 0.0
 0.0
 0.0
 0.0
 0.0
 0.0
 0.5075717702380009
 0.20611933190895979
 0.0
 0.0
 0.0
 0.0
 4.492428229761999
 1.8243258582590258
 0.0
 0.0
 0.0
 0.0
 0.0
 0.0
 0.0
 0.0
 0.0
 0.0
 0.0
 0.0
 0.9843543893017227
 0.6099316167078006
 0.0
 0.0
 0.0
 0.0
 0.0
 0.0
 0.0
 0.0
 1.8541475291991256
 1.0
 0.0
 0.0
 0.0
 0.0
 0.0
 0.0
 0.0
 0.0
 0.0
 0.0
 0.2152808218750868
 0.6458424656252604
 0.0
 0.75
 2.25
 0.0
 0.5426801791517422
 1.6280405374552265
 0.0
 0.0
 0.0
 0.0
 0.0
 0.0
 0.0
 0.0
 0.0
 0.0
 0.0
 0.0
 0.0
 0.49203899897317105
 1.4761169969195131
 0.0
 0.0
 0.0
 0.0
 0.0
 0.0
 0.0
 1.9681559958926842
 0.8416002542010109
 0.0
 0.0
 0.0
 0.0
 0.0
 0.0
 0.0
 0.0
 0.0
 0.0
 0.0
 0.0
 0.0
 0.0
 0.0
 3.255103682450962
 2.270856528644233
 0.0
 0.0
 0.0
 1.457349228555863
 1.0166905603489425
 0.0
 0.0
 0.0
 0.0
 0.0
 0.0
 0.0
 0.0
 0.0
 0.0
 0.0
 0.0
 0.0
 0.0
 0.0
 0.0
 0.0
 0.0
 0.0
 0.0
 0.0
 0.0
 0.0
 0.0
 0.0
 0.0
 0.22853667274765777
 0.0
 0.5534079835093724
 0.27587129988365877
 0.0
 0.0
 1.4465920164906276
 0.7211193764497507
 0.0
 0.0
 0.0
 0.0
 0.0
 0.0
 0.0
 0.0
 0.0
 0.0
 0.0
 0.0
 0.0
 0.0
 1.8675271623552776
 0.0
 0.0
 0.0
 0.3337754633869726
 0.0
 0.0
 0.0
 0.0
 0.0
 0.0
 0.0
 0.0
 0.0
 0.0
 0.0
 0.0
 0.0
 0.0
 0.0
 0.0
 1.6662245366130275
 1.0
 0.3337754633869725
 0.0
 0.0
 0.0
 0.0
 0.0
 0.0
 0.0
 0.0
 0.0
 1.42502509283687
 0.710832134495103
 0.0016804119233318187
 0.57497490716313
 0.2868090584236904
 0.0006780194218826536
 0.0
 0.0
 0.0
 0.0
 0.0
 0.0
 0.0
 0.0
 0.0
 0.0
 0.0
 0.0
 0.0
 0.6601774610600875
 0.688379230525315
 0.0
 0.0
 0.0
 0.0
 0.0
 0.0
 0.0
 0.0
 0.0
 0.0
 0.0
 0.0
 0.0
 0.0
 0.0
 0.0
 0.0
 0.0
 0.0
 0.0
 0.0
 0.0
 0.0
 0.0
 0.0
 0.0
 0.0
 0.0
 0.0
 0.0
 1.1997034304011813
 3.635779346445042
 0.0
 0.8937351607082349
x_ij_opt: 1-dimensional DenseAxisArray{Float64,1,...} with index sets:
    Dimension 1, [(43, 30), (43, 22), (43, 6), (44, 22), (45, 30), (45, 29), (45, 28), (45, 24), (45, 23), (40, 29)  …  (5, 7), (5, 14), (6, 4), (6, 3), (1, 14), (1, 10), (1, 23), (1, 1), (3, 2), (3, 1)]
And data, a 116-element Vector{Float64}:
 0.0
 0.1324728376447224
 1.4883494382054954
 0.0
 0.8002965695988187
 0.0
 1.3398225389399125
 0.0
 0.0
 0.0
 0.0
 0.0
 0.0
 0.0
 0.0
 0.0
 0.0
 0.0
 0.29177959179311475
 0.0
 0.0
 0.0
 0.0
 0.0
 0.0
 0.0
 0.0
 2.0
 0.0
 0.0
 0.0
 0.0
 0.0
 0.0
 0.0
 0.0
 0.0
 0.0
 0.0
 0.0
 0.0
 0.0
 0.0
 0.5116505617945045
 0.0
 0.0
 0.0
 0.0
 0.0
 0.0
 0.0
 0.0
 0.0
 0.0
 0.0
 0.7986973742577498
 0.0
 1.287547088993176
 0.1583997457989891
 1.7714633272523423
 0.0
 0.0
 0.0
 0.0
 6.0
 0.0
 0.0
 0.0
 0.0
 0.7082204082068853
 0.0
 0.0
 0.0
 0.0
 0.0
 0.0
 0.311620769474685
 1.0156456106982774
 0.0
 0.0
 0.0
 0.0
 0.0
 0.0
 0.0
 0.0
 0.0
 0.14585247080087438
 0.0
 0.0
 0.0
 0.0
 1.3038239200412742
 0.0
 0.0
 0.0
 0.0
 0.0023588070812066153
 0.0
 0.10626483929176511
 0.0
 0.0
 0.0
 0.0
 0.0
 0.0
 0.0
 0.0
 0.0
 0.0
 0.03184400410731583
 0.0
 0.0
 6.0
 0.0
 0.0
x_il_opt: 1-dimensional DenseAxisArray{Float64,1,...} with index sets:
    Dimension 1, [(43, 15), (43, 14), (44, 15), (44, 13), (44, 3), (40, 14), (40, 2), (41, 14), (42, 6), (37, 13)  …  (4, 13), (5, 2), (5, 7), (5, 9), (6, 11), (1, 1), (1, 6), (1, 3), (2, 1), (2, 15)]
And data, a 71-element Vector{Float64}:
 0.0
 0.0
 0.0
 2.1375376392553047
 0.7136911021469607
 1.3485566915854026
 0.0
 0.0
 0.8611232875003472
 0.8624619850087031
 0.0
 3.0
 0.0
 0.0
 3.0
 0.0
 0.0
 0.0
 5.525960211095195
 0.0
 0.0
 0.0
 3.0
 0.8292792833930311
 2.1707207166069686
 0.0
 2.4740397889048054
 0.0
 2.20130262574225
 0.0
 1.5540531652078349
 0.0
 0.0
 0.0
 0.0
 0.0
 0.0
 0.0
 0.4435884034469506
 0.0
 0.0
 0.0
 2.8541475291991256
 0.0
 0.0
 2.167711392940378
 0.0
 2.8097562500936952
 0.0
 0.0
 0.0
 0.0
 0.0
 0.0
 1.5942860060095234
 0.0
 0.0
 6.316754088021025
 0.0
 0.0
 0.0
 0.0
 0.0
 0.0
 0.22853667274765777
 0.0
 0.0
 1.9681559958926842
 0.0
 0.0
 5.729217937554458
x_lj_opt: 1-dimensional DenseAxisArray{Float64,1,...} with index sets:
    Dimension 1, [(15, 30), (15, 29), (15, 23), (15, 3), (14, 28), (14, 27), (14, 10), (14, 24), (13, 26), (13, 25)  …  (3, 6), (3, 5), (3, 29), (2, 4), (2, 3), (2, 1), (2, 5), (1, 2), (1, 1), (1, 14)]
And data, a 53-element Vector{Float64}:
 1.1997034304011813
 3.635779346445042
 0.0
 0.8937351607082349
 0.6601774610600875
 0.688379230525315
 0.0
 0.0
 2.0
 0.9976411929187934
 0.0023584313452144723
 1.6662245366130275
 1.0
 0.3337754633869725
 1.8675271623552776
 0.0
 0.0
 0.0
 0.3337754633869725
 0.0
 0.0
 2.0
 0.9969906763334094
 0.22853667274765777
 0.0
 0.0
 4.7124529110068245
 3.2875470889931755
 0.0
 0.0
 1.9681559958926842
 0.8416002542010109
 0.0
 2.0
 6.0
 0.0
 1.8541475291991256
 1.0
 0.0
 0.0
 0.9843543893017227
 0.6099316167078004
 0.0
 0.0
 5.0
 2.0304451901679856
 2.0
 0.0
 0.0
 1.0
 1.9976415686547855
 0.0
 0.0
q_opt: 1-dimensional DenseAxisArray{Float64,1,...} with index sets:
    Dimension 1, [(43, 15), (43, 14), (44, 15), (44, 13), (44, 3), (40, 14), (40, 2), (41, 14), (42, 6), (37, 13)  …  (4, 13), (5, 2), (5, 7), (5, 9), (6, 11), (1, 1), (1, 6), (1, 3), (2, 1), (2, 15)]
And data, a 71-element Vector{Float64}:
  0.0
  0.0
  0.0
  0.712512546418435
  0.10151435404760019
  1.0
  0.0
  0.0
  0.1076404109375434
  0.287487453581565
  0.0
  1.0
  0.0
  0.0
  0.375
  0.0
  0.0
  0.0
  0.6907450263868994
  0.0
  0.0
  0.0
  1.0
  0.2767040443508153
  0.2713400895758711
 -5.259612911867606e-8
  0.3092549736131006
  0.0
  1.0
  0.0
  0.7779439462978017
  0.0
  0.0
  0.0
  0.0
  0.0
  0.0
  0.0
  0.22205605370219827
  0.0
  0.0
  0.0
  1.0
  0.0
  0.0
  0.7232960082453138
  0.0
  1.0
  0.0
  0.0
  0.0
  0.0
  0.0
  0.0
  1.0000000000000002
  0.0
  0.0
  0.8984856459523998
  0.0
  0.0
  0.0
  0.0
  0.0
  0.0
  1.0
  0.0
  0.0
  0.24601949948658552
  0.0
  0.0
  1.0
GUROBI solution time: 5.662650108337402



